% Escenario 5:
% - 3 plantas
% - 2 clientes
% - 5 días
% Aumentan demandas y se mantiene G=50%.

p = 3;
m = 2;
n = 5;

plantNames = ["Nuclear", "Hidroelectrica", "Termica"];
clientNames = ["ClienteX", "ClienteY"];

cost = [45.0, 20.0, 60.0];
capacity = [800, 600, 400];
payment = [90.0, 120.0];

demand = array2d(1..m, 1..n, [
  100, 100, 80,  200, 250,
  250, 300, 350, 100,  90
]);

G = 0.50;

highThreshold = [0.9, 0.8, 0.75];
maxConsecutiveHigh = [1, 2, 1];
